Instance: E200-17b.dat
Class:  4
  199 --- number of customers (no depot)
   39 --- number of vehicles
  497 --- number of items
Capacity - height - width of vehicles
   200     40     20
Node - x - y - demand
    0    35.0    35.0     0.0
    1    41.0    49.0    10.0
    2    35.0    17.0     7.0
    3    55.0    45.0    13.0
    4    55.0    20.0    19.0
    5    15.0    30.0    26.0
    6    25.0    30.0     3.0
    7    20.0    50.0     5.0
    8    10.0    43.0     9.0
    9    55.0    60.0    16.0
   10    30.0    60.0    16.0
   11    20.0    65.0    12.0
   12    50.0    35.0    19.0
   13    30.0    25.0    23.0
   14    15.0    10.0    20.0
   15    30.0     5.0     8.0
   16    10.0    20.0    19.0
   17     5.0    30.0     2.0
   18    20.0    40.0    12.0
   19    15.0    60.0    17.0
   20    45.0    65.0     9.0
   21    45.0    20.0    11.0
   22    45.0    10.0    18.0
   23    55.0     5.0    29.0
   24    65.0    35.0     3.0
   25    65.0    20.0     6.0
   26    45.0    30.0    17.0
   27    35.0    40.0    16.0
   28    41.0    37.0    16.0
   29    64.0    42.0     9.0
   30    40.0    60.0    21.0
   31    31.0    52.0    27.0
   32    35.0    69.0    23.0
   33    53.0    52.0    11.0
   34    65.0    55.0    14.0
   35    63.0    65.0     8.0
   36     2.0    60.0     5.0
   37    20.0    20.0     8.0
   38     5.0     5.0    16.0
   39    60.0    12.0    31.0
   40    40.0    25.0     9.0
   41    42.0     7.0     5.0
   42    24.0    12.0     5.0
   43    23.0     3.0     7.0
   44    11.0    14.0    18.0
   45     6.0    38.0    16.0
   46     2.0    48.0     1.0
   47     8.0    56.0    27.0
   48    13.0    52.0    36.0
   49     6.0    68.0    30.0
   50    47.0    47.0    13.0
   51    49.0    58.0    10.0
   52    27.0    43.0     9.0
   53    37.0    31.0    14.0
   54    57.0    29.0    18.0
   55    63.0    23.0     2.0
   56    53.0    12.0     6.0
   57    32.0    12.0     7.0
   58    36.0    26.0    18.0
   59    21.0    24.0    28.0
   60    17.0    34.0     3.0
   61    12.0    24.0    13.0
   62    24.0    58.0    19.0
   63    27.0    69.0    10.0
   64    15.0    77.0     9.0
   65    62.0    77.0    20.0
   66    49.0    73.0    25.0
   67    67.0     5.0    25.0
   68    56.0    39.0    36.0
   69    37.0    47.0     6.0
   70    37.0    56.0     5.0
   71    57.0    68.0    15.0
   72    47.0    16.0    25.0
   73    44.0    17.0     9.0
   74    46.0    13.0     8.0
   75    49.0    11.0    18.0
   76    49.0    42.0    13.0
   77    53.0    43.0    14.0
   78    61.0    52.0     3.0
   79    57.0    48.0    23.0
   80    56.0    37.0     6.0
   81    55.0    54.0    26.0
   82    15.0    47.0    16.0
   83    14.0    37.0    11.0
   84    11.0    31.0     7.0
   85    16.0    22.0    41.0
   86     4.0    18.0    35.0
   87    28.0    18.0    26.0
   88    26.0    52.0     9.0
   89    26.0    35.0    15.0
   90    31.0    67.0     3.0
   91    15.0    19.0     1.0
   92    22.0    22.0     2.0
   93    18.0    24.0    22.0
   94    26.0    27.0    27.0
   95    25.0    24.0    20.0
   96    22.0    27.0    11.0
   97    25.0    21.0    12.0
   98    19.0    21.0    10.0
   99    20.0    26.0     9.0
  100    18.0    18.0    17.0
  101    37.0    52.0     7.0
  102    49.0    49.0    30.0
  103    52.0    64.0    16.0
  104    20.0    26.0     9.0
  105    40.0    30.0    21.0
  106    21.0    47.0    15.0
  107    17.0    63.0    19.0
  108    31.0    62.0    23.0
  109    52.0    33.0    11.0
  110    51.0    21.0     5.0
  111    42.0    41.0    19.0
  112    31.0    32.0    29.0
  113     5.0    25.0    23.0
  114    12.0    42.0    21.0
  115    36.0    16.0    10.0
  116    52.0    41.0    15.0
  117    27.0    23.0     3.0
  118    17.0    33.0    41.0
  119    13.0    13.0     9.0
  120    57.0    58.0    28.0
  121    62.0    42.0     8.0
  122    42.0    57.0     8.0
  123    16.0    57.0    16.0
  124     8.0    52.0    10.0
  125     7.0    38.0    28.0
  126    27.0    68.0     7.0
  127    30.0    48.0    15.0
  128    43.0    67.0    14.0
  129    58.0    48.0     6.0
  130    58.0    27.0    19.0
  131    37.0    69.0    11.0
  132    38.0    46.0    12.0
  133    46.0    10.0    23.0
  134    61.0    33.0    26.0
  135    62.0    63.0    17.0
  136    63.0    69.0     6.0
  137    32.0    22.0     9.0
  138    45.0    35.0    15.0
  139    59.0    15.0    14.0
  140     5.0     6.0     7.0
  141    10.0    17.0    27.0
  142    21.0    10.0    13.0
  143     5.0    64.0    11.0
  144    30.0    15.0    16.0
  145    39.0    10.0    10.0
  146    32.0    39.0     5.0
  147    25.0    32.0    25.0
  148    25.0    55.0    17.0
  149    48.0    28.0    18.0
  150    56.0    37.0    10.0
  151    22.0    22.0    18.0
  152    36.0    26.0    26.0
  153    21.0    45.0    11.0
  154    45.0    35.0    30.0
  155    55.0    20.0    21.0
  156    33.0    34.0    19.0
  157    50.0    50.0    15.0
  158    55.0    45.0    16.0
  159    26.0    59.0    29.0
  160    40.0    66.0    26.0
  161    55.0    65.0    37.0
  162    35.0    51.0    16.0
  163    62.0    35.0    12.0
  164    62.0    57.0    31.0
  165    62.0    24.0     8.0
  166    21.0    36.0    19.0
  167    33.0    44.0    20.0
  168     9.0    56.0    13.0
  169    62.0    48.0    15.0
  170    66.0    14.0    22.0
  171    44.0    13.0    28.0
  172    26.0    13.0    12.0
  173    11.0    28.0     6.0
  174     7.0    43.0    27.0
  175    17.0    64.0    14.0
  176    41.0    46.0    18.0
  177    55.0    34.0    17.0
  178    35.0    16.0    29.0
  179    52.0    26.0    13.0
  180    43.0    26.0    22.0
  181    31.0    76.0    25.0
  182    22.0    53.0    28.0
  183    26.0    29.0    27.0
  184    50.0    40.0    19.0
  185    55.0    50.0    10.0
  186    54.0    10.0    12.0
  187    60.0    15.0    14.0
  188    47.0    66.0    24.0
  189    30.0    60.0    16.0
  190    30.0    50.0    33.0
  191    12.0    17.0    15.0
  192    15.0    14.0    11.0
  193    16.0    19.0    18.0
  194    21.0    48.0    17.0
  195    50.0    30.0    21.0
  196    51.0    42.0    27.0
  197    50.0    15.0    19.0
  198    48.0    21.0    20.0
  199    12.0    38.0     5.0
Node - number of items - h - w for each item
    0   0
    1   2    7    4   26    3
    2   4    4   13    9    6   31    3    6    2
    3   2    7    6    7    5
    4   3    6    8    7    5   19    3
    5   4   15    7   30    3   30    3   29    3
    6   4    5   14    7    7   26    4   13    4
    7   1    6    6
    8   3    5    5   18    4   10    3
    9   2   10    8    8    6
   10   1   14    2
   11   2    7    9    7    4
   12   1    9    5
   13   1   23    3
   14   2   10    6   15    2
   15   4   14    4    6    3    6    3   27    2
   16   4    6    8    6    5   16    4   30    2
   17   3    8    6    7    4   23    3
   18   1   22    4
   19   4    4   14   10    6   29    3   29    2
   20   2   24    4   30    3
   21   1    6   13
   22   2   28    3   20    3
   23   4    9    8   16    3   25    2    4    2
   24   2    8    7   24    3
   25   4    6    9    7    5   16    4   10    4
   26   4    5    9   13    5    5    5   28    3
   27   1    6    9
   28   4    7   10    6    9    5    7   16    2
   29   2    5   14   10    6
   30   2    6   13   28    3
   31   4    9    5   14    4   26    3   25    2
   32   4    5   12    5    5   20    3   18    2
   33   1    4    7
   34   3    7    7    4    3   16    2
   35   2    6    6   22    2
   36   4   31    3   24    3   20    3   24    2
   37   4    8    8    7    8    4    6   31    2
   38   2    5    6   15    2
   39   2   11    7   23    4
   40   1   28    4
   41   1   20    3
   42   4    7   12    7    6   14    5   20    3
   43   2    8   10    4    7
   44   2    7    9    5    7
   45   4    8   10   11    5   31    4   15    4
   46   4   13    6    5    6    5    6   17    2
   47   2    8    7   25    3
   48   1    9    7
   49   3    7   11   13    7    8    6
   50   4    7   13    5   11    7    9    7    6
   51   2    6   12   13    6
   52   3    5    7    9    3    5    3
   53   2    7   11   31    2
   54   1   13    6
   55   2   12    4    5    3
   56   3   24    4   23    3   30    2
   57   3    4   11    6    6    5    2
   58   3    8    7   28    3   15    3
   59   2    6    6   24    4
   60   4    4    8   31    3   12    3   19    2
   61   4    4    8    5    5    9    4   27    2
   62   4   15    8    7    7    5    7   22    2
   63   2   13    6   21    2
   64   2    7    5   23    3
   65   4   12    8   15    7    7    7    8    5
   66   2    7   12    4   11
   67   3    5    9   24    4   19    3
   68   3    7   12    9    5   30    3
   69   2    5    4   21    2
   70   4    7    9    5    5    5    4   15    3
   71   2    7    7    5    7
   72   2    5   11    5   10
   73   2    8    9    7    8
   74   4    7    5   27    3   11    3   20    2
   75   1   31    3
   76   2    6    5   27    3
   77   1   17    3
   78   4    7   12    5    8   20    4   17    2
   79   4    5   12    5    6   25    3   30    2
   80   2   10    7   24    3
   81   2   11    6   24    4
   82   2    5    9   15    3
   83   2    7    6   15    3
   84   2    9    6   27    3
   85   2   31    4   19    3
   86   4    6    6    7    5    6    5   19    3
   87   2   24    4   21    3
   88   3    7   12    5    6    5    4
   89   3    7    9   10    8    6    4
   90   4   13    8    7    6   12    5   23    3
   91   2    7   12    7    5
   92   2    5    9    5    4
   93   1    8   13
   94   2    4   12    8    6
   95   3    8    8    6    7   13    2
   96   4    7   11    7    7   15    4   17    3
   97   2    7   14    6    5
   98   2    7    7    7    7
   99   2    6    5   14    4
  100   3   13    5   14    3   15    2
  101   4    6   12    7    9    8    8    9    2
  102   3    7    5   14    4   11    4
  103   2    4    7    6    6
  104   2    6   12   10    4
  105   3   10    5   21    3   16    3
  106   4    5   12    7   10    5    8   19    4
  107   2    5    9   11    6
  108   4    7    8   24    4   24    4   20    4
  109   3   20    3   28    2   23    2
  110   2   11    6    6    6
  111   2    7   10    6    4
  112   1   30    3
  113   1    6    7
  114   3    7    7    9    6   24    3
  115   3    5   13    8    7   19    2
  116   3    4    4   14    3   26    2
  117   4    8   10    5    6    4    6   30    2
  118   1   15    4
  119   3    5    8    5    7   12    2
  120   1    7    8
  121   1    6    5
  122   1    5   12
  123   2    6    8    6    2
  124   3   24    3   15    3   12    3
  125   1    7    6
  126   4    7   14    6    8   31    3    6    2
  127   1    7    5
  128   4    8   12    6   11    7    7   21    3
  129   1    5    7
  130   2    7   13    5    4
  131   4    6   14   12    7    7    7   29    3
  132   1   12    7
  133   1   13    4
  134   3    7    7    5    6   13    2
  135   4    5    9    4    4   17    2   15    2
  136   1   10    5
  137   2   13    4   24    3
  138   4    5   11   28    4   21    4   18    3
  139   3    8   11    7    6   21    3
  140   3    4    5   24    4   23    2
  141   1    5    5
  142   1   27    3
  143   1   31    3
  144   3    5   13   13    8   25    3
  145   4    5    7    9    6    9    3   14    2
  146   1   10    7
  147   4    6   10    6    5   15    4   16    2
  148   2    7    7   11    5
  149   1    8    7
  150   4    5    8    6    7    5    5   29    2
  151   4    7    6    4    6    7    5   22    2
  152   2    7   12   13    2
  153   2    8    8    7    3
  154   4    6    9    4    7   23    4   20    3
  155   3    7   14    6    7   22    3
  156   3    6    7   12    4    6    4
  157   2   23    3   18    3
  158   3    5   11   11    7    6    6
  159   2    6   11    5    8
  160   2   31    4   24    3
  161   2    5   11   28    3
  162   2   11    4   18    3
  163   2   18    2    8    2
  164   1   25    3
  165   2    7    8    5    4
  166   1    7    7
  167   1    5    4
  168   2   19    3    8    2
  169   3    5    7   32    3   15    2
  170   3    5   12    5   10    7    3
  171   4    7    8   15    5   10    3   16    2
  172   2   20    2    7    2
  173   4    7    7    7    5   26    3   22    3
  174   4    5   13    7   12   14    2    4    2
  175   2    4   13   15    3
  176   3    5    6   17    4   15    3
  177   4    8    8    4    7    8    4    8    4
  178   2    4    4   17    3
  179   4    7    9    6    8    4    6   15    4
  180   2   15    7    6    7
  181   2    6   13   29    3
  182   2    4   12   11    3
  183   3    8    5   30    4   19    3
  184   4    5    7   12    5    7    4   21    2
  185   1   17    2
  186   3    6    7   11    4   10    2
  187   4    7   13    8   10    4    6   25    4
  188   1   10    3
  189   2    5   12   11    4
  190   4    6    7   13    5   31    4   17    3
  191   1    5    8
  192   1   12    5
  193   2    4    5   18    3
  194   1   30    3
  195   4    4   12   11    5    6    5   10    3
  196   3    4    5    5    4   13    3
  197   2   15    4   10    3
  198   1   10    3
  199   2    4    6   12    2
